data/exact/exact_028.gr
p tdp 31 64
1 2
1 5
1 3
1 6
1 7
2 3
2 4
3 4
4 5
4 7
4 26
5 8
5 9
5 10
5 7
6 8
6 9
6 27
6 26
7 10
7 27
8 11
8 10
8 12
9 27
9 16
10 26
11 28
11 29
11 16
12 14
12 13
13 14
13 15
13 17
13 16
14 15
14 16
15 17
17 18
17 19
18 20
18 21
19 31
19 22
19 21
20 23
20 24
20 21
20 25
21 24
21 25
22 23
22 31
22 25
23 24
23 25
24 25
26 27
28 29
28 30
29 30
29 31
30 31
