solutions/best/exact/exact_028.sol
9
9
4
2
1
27
27
5
0
8
4
29
14
16
13
14
31
9
20
25
25
31
19
21
20
23
6
10
16
28
29
17
